1567372
40,29,24,28,59,22,48,18,4,39,55,31,11,41,2,60,23,0,53,12,46,19,3,47,1,64,44,26,16,8,57,14,7,67,34,50,61,38,36,52,43,13,9,17,56,32,51,21,30,27,49,35,58,15,62,20,37,66,63,6,42,45,33,54,25,65,10,5
